proyfinal/src/viki/013/experimentInOfficeAgust.take6.output/05e25d3d-2745-47f5-94e7-f6bbfc7e3b4c.als.dat
{'cnf.clauses': '118081',
 'cnf.totvars': '69608',
 'conflict literals': '9',
 'conflicts': '6',
 'decisions': '3757',
 'memused.mb': '15.49',
 'outcome': 'UNSAT',
 'propagations': '23703',
 'restarts': '1',
 'solver.msecs': 30,
 'task.msecs': 111}
