proyfinal/src/viki/013/experimentInOfficeAgust.take6.output/05e25d3d-2745-47f5-94e7-f6bbfc7e3b4c.als.out
Reading from standard input... Use '--help' for help.
============================[ Problem Statistics ]=============================
|                                                                             |
|  Number of variables:         69608                                         |
|  Number of clauses:          118081                                         |
|  Parse time:                   0.02 s                                       |
|                                                                             |
============================[ Search Statistics ]==============================
| Conflicts |          ORIGINAL         |          LEARNT          | Progress |
|           |    Vars  Clauses Literals |    Limit  Clauses Lit/Cl |          |
===============================================================================
===============================================================================
restarts              : 1
conflicts             : 6              (196 /sec)
decisions             : 3757           (0.00 % random) (122947 /sec)
propagations          : 23703          (775672 /sec)
conflict literals     : 9              (0.00 % deleted)
Memory used           : 15.49 MB
CPU time              : 0.030558 s

UNSATISFIABLE
